(set-logic QF_NRA)
(set-info :source |Benchmarks generated from hycomp (https://es-static.fbk.eu/tools/hycomp/). BMC instances of non-linear hybrid automata taken from: Alessandro Cimatti, Sergio Mover, Stefano Tonetta, A quantifier-free SMT encoding of non-linear hybrid automata, FMCAD 2012 and Alessandro Cimatti, Sergio Mover, Stefano Tonetta, Quantier-free encoding of invariants for Hybrid Systems, Formal Methods in System Design. This instance solves a BMC problem of depth 3 and uses the quantifier free encoding encoding. Contacts: Sergio Mover (mover@fbk.eu), Stefano Tonetta (tonettas@fbk.eu), Alessandro Cimatti (cimatti@fbk.eu).|)
(set-info :smt-lib-version 2.0)
(set-info :category "industrial")
(set-info :status unsat)
;; MathSAT API call trace
;; generated on Mon Mar 19 10:37:32 2012
(declare-fun b.speed_y__AT2 () Real)
(declare-fun b.y__AT0 () Real)
(declare-fun b.counter.0__AT0 () Bool)
(declare-fun b.EVENT.0__AT0 () Bool)
(declare-fun b.counter.3__AT0 () Bool)
(declare-fun b.counter.1__AT0 () Bool)
(declare-fun b.event_is_timed__AT1 () Bool)
(declare-fun b.event_is_timed__AT3 () Bool)
(declare-fun b.bool_atom__AT1 () Bool)
(declare-fun b.y__AT3 () Real)
(declare-fun b.counter.0__AT3 () Bool)
(declare-fun b.g__AT0 () Real)
(declare-fun b.speed_y__AT0 () Real)
(declare-fun b.counter.1__AT3 () Bool)
(declare-fun b.x__AT1 () Real)
(declare-fun b.x__AT3 () Real)
(declare-fun b.y__AT1 () Real)
(declare-fun b.counter.2__AT3 () Bool)
(declare-fun b.counter.2__AT0 () Bool)
(declare-fun b.EVENT.1__AT3 () Bool)
(declare-fun b.counter.0__AT1 () Bool)
(declare-fun b.counter.3__AT3 () Bool)
(declare-fun b.bool_atom__AT3 () Bool)
(declare-fun b.counter.1__AT1 () Bool)
(declare-fun b.counter.2__AT1 () Bool)
(declare-fun b.event_is_timed__AT2 () Bool)
(declare-fun b.event_is_timed__AT0 () Bool)
(declare-fun b.time__AT3 () Real)
(declare-fun b.speed_y__AT3 () Real)
(declare-fun b.counter.3__AT1 () Bool)
(declare-fun b.bool_atom__AT0 () Bool)
(declare-fun b.delta__AT3 () Real)
(declare-fun b.x__AT0 () Real)
(declare-fun b.EVENT.0__AT3 () Bool)
(declare-fun b.counter.0__AT2 () Bool)
(declare-fun b.time__AT2 () Real)
(declare-fun b.y__AT2 () Real)
(declare-fun b.delta__AT1 () Real)
(declare-fun b.delta__AT2 () Real)
(declare-fun b.counter.1__AT2 () Bool)
(declare-fun b.speed_y__AT1 () Real)
(declare-fun b.bool_atom__AT2 () Bool)
(declare-fun b.time__AT1 () Real)
(declare-fun b.EVENT.0__AT1 () Bool)
(declare-fun b.counter.2__AT2 () Bool)
(declare-fun b.time__AT0 () Real)
(declare-fun b.x__AT2 () Real)
(declare-fun b.EVENT.1__AT1 () Bool)
(declare-fun b.counter.3__AT2 () Bool)
(declare-fun b.EVENT.0__AT2 () Bool)
(declare-fun b.delta__AT0 () Real)
(declare-fun b.EVENT.1__AT2 () Bool)
(declare-fun b.EVENT.1__AT0 () Bool)
(assert (let ((.def_72 (* (- 1.0) b.g__AT0)))
(let ((.def_75 (* (/ 1 2) .def_72)))
(let ((.def_88 (* 2.0 .def_75)))
(let ((.def_94 (* (- 1.0) .def_88)))
(let ((.def_654 (* .def_94 b.delta__AT3)))
(let ((.def_655 (<= b.speed_y__AT3 .def_654)))
(let ((.def_653 (<= b.speed_y__AT3 0.0 )))
(let ((.def_656 (and .def_653 .def_655)))
(let ((.def_649 (* .def_88 b.delta__AT3)))
(let ((.def_650 (+ b.speed_y__AT3 .def_649)))
(let ((.def_651 (<= 0.0 .def_650)))
(let ((.def_648 (<= 0.0 b.speed_y__AT3)))
(let ((.def_652 (and .def_648 .def_651)))
(let ((.def_657 (or .def_652 .def_656)))
(let ((.def_639 (* b.speed_y__AT3 b.delta__AT3)))
(let ((.def_637 (* b.delta__AT3 b.delta__AT3)))
(let ((.def_638 (* .def_75 .def_637)))
(let ((.def_640 (+ .def_638 .def_639)))
(let ((.def_621 (* (- 1.0) b.x__AT3)))
(let ((.def_622 (* b.x__AT3 .def_621)))
(let ((.def_641 (* (- 1.0) .def_622)))
(let ((.def_644 (+ .def_641 .def_640)))
(let ((.def_645 (+ b.y__AT3 .def_644)))
(let ((.def_646 (<= 0.0 .def_645)))
(let ((.def_623 (<= .def_622 b.y__AT3)))
(let ((.def_647 (and .def_623 .def_646)))
(let ((.def_658 (and .def_647 .def_657)))
(let ((.def_64 (<= b.g__AT0 10.0 )))
(let ((.def_63 (<= 8.0 b.g__AT0)))
(let ((.def_65 (and .def_63 .def_64)))
(let ((.def_659 (and .def_65 .def_658)))
(let ((.def_357 (not b.counter.0__AT2)))
(let ((.def_347 (not b.counter.1__AT2)))
(let ((.def_628 (and .def_347 .def_357)))
(let ((.def_632 (or b.counter.3__AT2 .def_628)))
(let ((.def_629 (or b.counter.2__AT2 .def_628)))
(let ((.def_352 (not b.counter.2__AT2)))
(let ((.def_627 (or .def_347 .def_352)))
(let ((.def_630 (and .def_627 .def_629)))
(let ((.def_366 (not b.counter.3__AT2)))
(let ((.def_631 (or .def_366 .def_630)))
(let ((.def_633 (and .def_631 .def_632)))
(let ((.def_624 (and .def_65 .def_623)))
(let ((.def_618 (not b.EVENT.0__AT3)))
(let ((.def_616 (not b.EVENT.1__AT3)))
(let ((.def_619 (or .def_616 .def_618)))
(let ((.def_9 (not b.counter.0__AT3)))
(let ((.def_6 (not b.counter.1__AT3)))
(let ((.def_609 (or .def_6 .def_9)))
(let ((.def_613 (or b.counter.3__AT3 .def_609)))
(let ((.def_610 (or b.counter.2__AT3 .def_609)))
(let ((.def_4 (not b.counter.2__AT3)))
(let ((.def_608 (or .def_4 .def_9)))
(let ((.def_611 (and .def_608 .def_610)))
(let ((.def_14 (not b.counter.3__AT3)))
(let ((.def_612 (or .def_14 .def_611)))
(let ((.def_614 (and .def_612 .def_613)))
(let ((.def_620 (and .def_614 .def_619)))
(let ((.def_625 (and .def_620 .def_624)))
(let ((.def_603 (<= 0.0 b.delta__AT2)))
(let ((.def_437 (not b.EVENT.0__AT2)))
(let ((.def_435 (not b.EVENT.1__AT2)))
(let ((.def_480 (and .def_435 .def_437)))
(let ((.def_482 (not .def_480)))
(let ((.def_604 (or .def_482 .def_603)))
(let ((.def_605 (or b.EVENT.1__AT2 .def_604)))
(let ((.def_517 (= b.bool_atom__AT2 b.bool_atom__AT3)))
(let ((.def_513 (= b.counter.0__AT3 b.counter.0__AT2)))
(let ((.def_511 (= b.counter.1__AT3 b.counter.1__AT2)))
(let ((.def_509 (= b.counter.2__AT3 b.counter.2__AT2)))
(let ((.def_508 (= b.counter.3__AT3 b.counter.3__AT2)))
(let ((.def_510 (and .def_508 .def_509)))
(let ((.def_512 (and .def_510 .def_511)))
(let ((.def_514 (and .def_512 .def_513)))
(let ((.def_599 (and .def_514 .def_517)))
(let ((.def_600 (or .def_482 .def_599)))
(let ((.def_601 (or b.EVENT.1__AT2 .def_600)))
(let ((.def_588 (* .def_72 b.delta__AT2)))
(let ((.def_589 (* (- 1.0) b.speed_y__AT3)))
(let ((.def_592 (+ .def_589 .def_588)))
(let ((.def_593 (+ b.speed_y__AT2 .def_592)))
(let ((.def_594 (= .def_593 0.0 )))
(let ((.def_579 (* (- 1.0) b.y__AT3)))
(let ((.def_458 (* b.speed_y__AT2 b.delta__AT2)))
(let ((.def_583 (+ .def_458 .def_579)))
(let ((.def_456 (* b.delta__AT2 b.delta__AT2)))
(let ((.def_457 (* .def_75 .def_456)))
(let ((.def_584 (+ .def_457 .def_583)))
(let ((.def_585 (+ b.y__AT2 .def_584)))
(let ((.def_586 (= .def_585 0.0 )))
(let ((.def_500 (= b.x__AT2 b.x__AT3)))
(let ((.def_587 (and .def_500 .def_586)))
(let ((.def_595 (and .def_587 .def_594)))
(let ((.def_596 (or .def_482 .def_595)))
(let ((.def_503 (= b.y__AT2 b.y__AT3)))
(let ((.def_574 (and .def_500 .def_503)))
(let ((.def_506 (= b.speed_y__AT2 b.speed_y__AT3)))
(let ((.def_575 (and .def_506 .def_574)))
(let ((.def_571 (= b.delta__AT2 0.0 )))
(let ((.def_572 (and .def_480 .def_571)))
(let ((.def_573 (not .def_572)))
(let ((.def_576 (or .def_573 .def_575)))
(let ((.def_577 (or b.EVENT.1__AT2 .def_576)))
(let ((.def_564 (and .def_506 .def_514)))
(let ((.def_565 (or b.bool_atom__AT2 .def_564)))
(let ((.def_540 (or .def_9 b.counter.0__AT2)))
(let ((.def_539 (or b.counter.0__AT3 .def_357)))
(let ((.def_541 (and .def_539 .def_540)))
(let ((.def_542 (and .def_6 .def_541)))
(let ((.def_543 (or b.counter.1__AT2 .def_542)))
(let ((.def_538 (or b.counter.1__AT3 .def_347)))
(let ((.def_544 (and .def_538 .def_543)))
(let ((.def_555 (and .def_4 .def_544)))
(let ((.def_556 (or b.counter.2__AT2 .def_555)))
(let ((.def_550 (and .def_6 .def_357)))
(let ((.def_551 (or b.counter.1__AT2 .def_550)))
(let ((.def_552 (and .def_538 .def_551)))
(let ((.def_553 (and b.counter.2__AT3 .def_552)))
(let ((.def_554 (or .def_352 .def_553)))
(let ((.def_557 (and .def_554 .def_556)))
(let ((.def_558 (and b.counter.3__AT3 .def_557)))
(let ((.def_559 (or b.counter.3__AT2 .def_558)))
(let ((.def_545 (and b.counter.2__AT3 .def_544)))
(let ((.def_546 (or b.counter.2__AT2 .def_545)))
(let ((.def_534 (or b.counter.1__AT3 b.counter.1__AT2)))
(let ((.def_532 (and .def_6 b.counter.0__AT3)))
(let ((.def_533 (or .def_347 .def_532)))
(let ((.def_535 (and .def_533 .def_534)))
(let ((.def_536 (and .def_4 .def_535)))
(let ((.def_537 (or .def_352 .def_536)))
(let ((.def_547 (and .def_537 .def_546)))
(let ((.def_548 (and .def_14 .def_547)))
(let ((.def_549 (or .def_366 .def_548)))
(let ((.def_560 (and .def_549 .def_559)))
(let ((.def_529 (* b.speed_y__AT3 b.speed_y__AT3)))
(let ((.def_344 (* b.speed_y__AT2 b.speed_y__AT2)))
(let ((.def_530 (= .def_344 .def_529)))
(let ((.def_527 (+ b.speed_y__AT2 b.speed_y__AT3)))
(let ((.def_528 (= .def_527 0.0 )))
(let ((.def_531 (and .def_528 .def_530)))
(let ((.def_561 (and .def_531 .def_560)))
(let ((.def_526 (not b.bool_atom__AT2)))
(let ((.def_562 (or .def_526 .def_561)))
(let ((.def_467 (<= 0.0 b.speed_y__AT2)))
(let ((.def_523 (not .def_467)))
(let ((.def_440 (* (- 1.0) b.x__AT2)))
(let ((.def_441 (* b.x__AT2 .def_440)))
(let ((.def_522 (= b.y__AT2 .def_441)))
(let ((.def_524 (and .def_522 .def_523)))
(let ((.def_525 (= b.bool_atom__AT2 .def_524)))
(let ((.def_563 (and .def_525 .def_562)))
(let ((.def_566 (and .def_563 .def_565)))
(let ((.def_567 (and .def_500 .def_566)))
(let ((.def_568 (and .def_503 .def_567)))
(let ((.def_569 (or .def_480 .def_568)))
(let ((.def_570 (or b.EVENT.1__AT2 .def_569)))
(let ((.def_578 (and .def_570 .def_577)))
(let ((.def_597 (and .def_578 .def_596)))
(let ((.def_487 (= b.time__AT2 b.time__AT3)))
(let ((.def_501 (and .def_487 .def_500)))
(let ((.def_504 (and .def_501 .def_503)))
(let ((.def_507 (and .def_504 .def_506)))
(let ((.def_515 (and .def_507 .def_514)))
(let ((.def_518 (and .def_515 .def_517)))
(let ((.def_519 (or .def_435 .def_518)))
(let ((.def_490 (* (- 1.0) b.time__AT3)))
(let ((.def_493 (+ b.delta__AT2 .def_490)))
(let ((.def_494 (+ b.time__AT2 .def_493)))
(let ((.def_495 (= .def_494 0.0 )))
(let ((.def_496 (or .def_482 .def_495)))
(let ((.def_497 (or b.EVENT.1__AT2 .def_496)))
(let ((.def_488 (or .def_480 .def_487)))
(let ((.def_489 (or b.EVENT.1__AT2 .def_488)))
(let ((.def_498 (and .def_489 .def_497)))
(let ((.def_520 (and .def_498 .def_519)))
(let ((.def_484 (= .def_482 b.event_is_timed__AT3)))
(let ((.def_481 (= b.event_is_timed__AT2 .def_480)))
(let ((.def_485 (and .def_481 .def_484)))
(let ((.def_521 (and .def_485 .def_520)))
(let ((.def_598 (and .def_521 .def_597)))
(let ((.def_602 (and .def_598 .def_601)))
(let ((.def_606 (and .def_602 .def_605)))
(let ((.def_607 (and .def_435 .def_606)))
(let ((.def_626 (and .def_607 .def_625)))
(let ((.def_634 (and .def_626 .def_633)))
(let ((.def_473 (* .def_94 b.delta__AT2)))
(let ((.def_474 (<= b.speed_y__AT2 .def_473)))
(let ((.def_472 (<= b.speed_y__AT2 0.0 )))
(let ((.def_475 (and .def_472 .def_474)))
(let ((.def_468 (* .def_88 b.delta__AT2)))
(let ((.def_469 (+ b.speed_y__AT2 .def_468)))
(let ((.def_470 (<= 0.0 .def_469)))
(let ((.def_471 (and .def_467 .def_470)))
(let ((.def_476 (or .def_471 .def_475)))
(let ((.def_459 (+ .def_457 .def_458)))
(let ((.def_460 (* (- 1.0) .def_441)))
(let ((.def_463 (+ .def_460 .def_459)))
(let ((.def_464 (+ b.y__AT2 .def_463)))
(let ((.def_465 (<= 0.0 .def_464)))
(let ((.def_442 (<= .def_441 b.y__AT2)))
(let ((.def_466 (and .def_442 .def_465)))
(let ((.def_477 (and .def_466 .def_476)))
(let ((.def_478 (and .def_65 .def_477)))
(let ((.def_170 (not b.counter.0__AT1)))
(let ((.def_160 (not b.counter.1__AT1)))
(let ((.def_447 (and .def_160 .def_170)))
(let ((.def_451 (or b.counter.3__AT1 .def_447)))
(let ((.def_448 (or b.counter.2__AT1 .def_447)))
(let ((.def_165 (not b.counter.2__AT1)))
(let ((.def_446 (or .def_160 .def_165)))
(let ((.def_449 (and .def_446 .def_448)))
(let ((.def_179 (not b.counter.3__AT1)))
(let ((.def_450 (or .def_179 .def_449)))
(let ((.def_452 (and .def_450 .def_451)))
(let ((.def_443 (and .def_65 .def_442)))
(let ((.def_438 (or .def_435 .def_437)))
(let ((.def_428 (or .def_347 .def_357)))
(let ((.def_432 (or b.counter.3__AT2 .def_428)))
(let ((.def_429 (or b.counter.2__AT2 .def_428)))
(let ((.def_427 (or .def_352 .def_357)))
(let ((.def_430 (and .def_427 .def_429)))
(let ((.def_431 (or .def_366 .def_430)))
(let ((.def_433 (and .def_431 .def_432)))
(let ((.def_439 (and .def_433 .def_438)))
(let ((.def_444 (and .def_439 .def_443)))
(let ((.def_422 (<= 0.0 b.delta__AT1)))
(let ((.def_249 (not b.EVENT.0__AT1)))
(let ((.def_247 (not b.EVENT.1__AT1)))
(let ((.def_291 (and .def_247 .def_249)))
(let ((.def_293 (not .def_291)))
(let ((.def_423 (or .def_293 .def_422)))
(let ((.def_424 (or b.EVENT.1__AT1 .def_423)))
(let ((.def_332 (= b.bool_atom__AT1 b.bool_atom__AT2)))
(let ((.def_328 (= b.counter.0__AT1 b.counter.0__AT2)))
(let ((.def_325 (= b.counter.1__AT1 b.counter.1__AT2)))
(let ((.def_322 (= b.counter.2__AT1 b.counter.2__AT2)))
(let ((.def_320 (= b.counter.3__AT1 b.counter.3__AT2)))
(let ((.def_323 (and .def_320 .def_322)))
(let ((.def_326 (and .def_323 .def_325)))
(let ((.def_329 (and .def_326 .def_328)))
(let ((.def_418 (and .def_329 .def_332)))
(let ((.def_419 (or .def_293 .def_418)))
(let ((.def_420 (or b.EVENT.1__AT1 .def_419)))
(let ((.def_407 (* .def_72 b.delta__AT1)))
(let ((.def_408 (* (- 1.0) b.speed_y__AT2)))
(let ((.def_411 (+ .def_408 .def_407)))
(let ((.def_412 (+ b.speed_y__AT1 .def_411)))
(let ((.def_413 (= .def_412 0.0 )))
(let ((.def_398 (* (- 1.0) b.y__AT2)))
(let ((.def_269 (* b.speed_y__AT1 b.delta__AT1)))
(let ((.def_402 (+ .def_269 .def_398)))
(let ((.def_267 (* b.delta__AT1 b.delta__AT1)))
(let ((.def_268 (* .def_75 .def_267)))
(let ((.def_403 (+ .def_268 .def_402)))
(let ((.def_404 (+ b.y__AT1 .def_403)))
(let ((.def_405 (= .def_404 0.0 )))
(let ((.def_311 (= b.x__AT1 b.x__AT2)))
(let ((.def_406 (and .def_311 .def_405)))
(let ((.def_414 (and .def_406 .def_413)))
(let ((.def_415 (or .def_293 .def_414)))
(let ((.def_314 (= b.y__AT1 b.y__AT2)))
(let ((.def_393 (and .def_311 .def_314)))
(let ((.def_317 (= b.speed_y__AT1 b.speed_y__AT2)))
(let ((.def_394 (and .def_317 .def_393)))
(let ((.def_390 (= b.delta__AT1 0.0 )))
(let ((.def_391 (and .def_291 .def_390)))
(let ((.def_392 (not .def_391)))
(let ((.def_395 (or .def_392 .def_394)))
(let ((.def_396 (or b.EVENT.1__AT1 .def_395)))
(let ((.def_383 (and .def_317 .def_329)))
(let ((.def_384 (or b.bool_atom__AT1 .def_383)))
(let ((.def_358 (or b.counter.0__AT1 .def_357)))
(let ((.def_356 (or .def_170 b.counter.0__AT2)))
(let ((.def_359 (and .def_356 .def_358)))
(let ((.def_360 (and .def_347 .def_359)))
(let ((.def_361 (or b.counter.1__AT1 .def_360)))
(let ((.def_355 (or .def_160 b.counter.1__AT2)))
(let ((.def_362 (and .def_355 .def_361)))
(let ((.def_374 (and .def_352 .def_362)))
(let ((.def_375 (or b.counter.2__AT1 .def_374)))
(let ((.def_369 (and .def_170 .def_347)))
(let ((.def_370 (or b.counter.1__AT1 .def_369)))
(let ((.def_371 (and .def_355 .def_370)))
(let ((.def_372 (and b.counter.2__AT2 .def_371)))
(let ((.def_373 (or .def_165 .def_372)))
(let ((.def_376 (and .def_373 .def_375)))
(let ((.def_377 (and b.counter.3__AT2 .def_376)))
(let ((.def_378 (or b.counter.3__AT1 .def_377)))
(let ((.def_363 (and b.counter.2__AT2 .def_362)))
(let ((.def_364 (or b.counter.2__AT1 .def_363)))
(let ((.def_350 (or b.counter.1__AT1 b.counter.1__AT2)))
(let ((.def_348 (and b.counter.0__AT2 .def_347)))
(let ((.def_349 (or .def_160 .def_348)))
(let ((.def_351 (and .def_349 .def_350)))
(let ((.def_353 (and .def_351 .def_352)))
(let ((.def_354 (or .def_165 .def_353)))
(let ((.def_365 (and .def_354 .def_364)))
(let ((.def_367 (and .def_365 .def_366)))
(let ((.def_368 (or .def_179 .def_367)))
(let ((.def_379 (and .def_368 .def_378)))
(let ((.def_156 (* b.speed_y__AT1 b.speed_y__AT1)))
(let ((.def_345 (= .def_156 .def_344)))
(let ((.def_342 (+ b.speed_y__AT1 b.speed_y__AT2)))
(let ((.def_343 (= .def_342 0.0 )))
(let ((.def_346 (and .def_343 .def_345)))
(let ((.def_380 (and .def_346 .def_379)))
(let ((.def_341 (not b.bool_atom__AT1)))
(let ((.def_381 (or .def_341 .def_380)))
(let ((.def_278 (<= 0.0 b.speed_y__AT1)))
(let ((.def_338 (not .def_278)))
(let ((.def_252 (* (- 1.0) b.x__AT1)))
(let ((.def_253 (* b.x__AT1 .def_252)))
(let ((.def_337 (= b.y__AT1 .def_253)))
(let ((.def_339 (and .def_337 .def_338)))
(let ((.def_340 (= b.bool_atom__AT1 .def_339)))
(let ((.def_382 (and .def_340 .def_381)))
(let ((.def_385 (and .def_382 .def_384)))
(let ((.def_386 (and .def_311 .def_385)))
(let ((.def_387 (and .def_314 .def_386)))
(let ((.def_388 (or .def_291 .def_387)))
(let ((.def_389 (or b.EVENT.1__AT1 .def_388)))
(let ((.def_397 (and .def_389 .def_396)))
(let ((.def_416 (and .def_397 .def_415)))
(let ((.def_298 (= b.time__AT1 b.time__AT2)))
(let ((.def_312 (and .def_298 .def_311)))
(let ((.def_315 (and .def_312 .def_314)))
(let ((.def_318 (and .def_315 .def_317)))
(let ((.def_330 (and .def_318 .def_329)))
(let ((.def_333 (and .def_330 .def_332)))
(let ((.def_334 (or .def_247 .def_333)))
(let ((.def_301 (* (- 1.0) b.time__AT2)))
(let ((.def_304 (+ b.delta__AT1 .def_301)))
(let ((.def_305 (+ b.time__AT1 .def_304)))
(let ((.def_306 (= .def_305 0.0 )))
(let ((.def_307 (or .def_293 .def_306)))
(let ((.def_308 (or b.EVENT.1__AT1 .def_307)))
(let ((.def_299 (or .def_291 .def_298)))
(let ((.def_300 (or b.EVENT.1__AT1 .def_299)))
(let ((.def_309 (and .def_300 .def_308)))
(let ((.def_335 (and .def_309 .def_334)))
(let ((.def_295 (= .def_293 b.event_is_timed__AT2)))
(let ((.def_292 (= b.event_is_timed__AT1 .def_291)))
(let ((.def_296 (and .def_292 .def_295)))
(let ((.def_336 (and .def_296 .def_335)))
(let ((.def_417 (and .def_336 .def_416)))
(let ((.def_421 (and .def_417 .def_420)))
(let ((.def_425 (and .def_421 .def_424)))
(let ((.def_426 (and .def_247 .def_425)))
(let ((.def_445 (and .def_426 .def_444)))
(let ((.def_453 (and .def_445 .def_452)))
(let ((.def_284 (* .def_94 b.delta__AT1)))
(let ((.def_285 (<= b.speed_y__AT1 .def_284)))
(let ((.def_283 (<= b.speed_y__AT1 0.0 )))
(let ((.def_286 (and .def_283 .def_285)))
(let ((.def_279 (* .def_88 b.delta__AT1)))
(let ((.def_280 (+ b.speed_y__AT1 .def_279)))
(let ((.def_281 (<= 0.0 .def_280)))
(let ((.def_282 (and .def_278 .def_281)))
(let ((.def_287 (or .def_282 .def_286)))
(let ((.def_270 (+ .def_268 .def_269)))
(let ((.def_271 (* (- 1.0) .def_253)))
(let ((.def_274 (+ .def_271 .def_270)))
(let ((.def_275 (+ b.y__AT1 .def_274)))
(let ((.def_276 (<= 0.0 .def_275)))
(let ((.def_254 (<= .def_253 b.y__AT1)))
(let ((.def_277 (and .def_254 .def_276)))
(let ((.def_288 (and .def_277 .def_287)))
(let ((.def_289 (and .def_65 .def_288)))
(let ((.def_34 (not b.counter.0__AT0)))
(let ((.def_32 (not b.counter.1__AT0)))
(let ((.def_35 (and .def_32 .def_34)))
(let ((.def_262 (or .def_35 b.counter.3__AT0)))
(let ((.def_259 (or .def_35 b.counter.2__AT0)))
(let ((.def_37 (not b.counter.2__AT0)))
(let ((.def_258 (or .def_32 .def_37)))
(let ((.def_260 (and .def_258 .def_259)))
(let ((.def_40 (not b.counter.3__AT0)))
(let ((.def_261 (or .def_40 .def_260)))
(let ((.def_263 (and .def_261 .def_262)))
(let ((.def_255 (and .def_65 .def_254)))
(let ((.def_250 (or .def_247 .def_249)))
(let ((.def_240 (or .def_160 .def_170)))
(let ((.def_244 (or b.counter.3__AT1 .def_240)))
(let ((.def_241 (or b.counter.2__AT1 .def_240)))
(let ((.def_239 (or .def_165 .def_170)))
(let ((.def_242 (and .def_239 .def_241)))
(let ((.def_243 (or .def_179 .def_242)))
(let ((.def_245 (and .def_243 .def_244)))
(let ((.def_251 (and .def_245 .def_250)))
(let ((.def_256 (and .def_251 .def_255)))
(let ((.def_234 (<= 0.0 b.delta__AT0)))
(let ((.def_53 (not b.EVENT.0__AT0)))
(let ((.def_51 (not b.EVENT.1__AT0)))
(let ((.def_102 (and .def_51 .def_53)))
(let ((.def_104 (not .def_102)))
(let ((.def_235 (or .def_104 .def_234)))
(let ((.def_236 (or b.EVENT.1__AT0 .def_235)))
(let ((.def_144 (= b.bool_atom__AT0 b.bool_atom__AT1)))
(let ((.def_139 (= b.counter.0__AT0 b.counter.0__AT1)))
(let ((.def_136 (= b.counter.1__AT0 b.counter.1__AT1)))
(let ((.def_133 (= b.counter.2__AT0 b.counter.2__AT1)))
(let ((.def_131 (= b.counter.3__AT0 b.counter.3__AT1)))
(let ((.def_134 (and .def_131 .def_133)))
(let ((.def_137 (and .def_134 .def_136)))
(let ((.def_140 (and .def_137 .def_139)))
(let ((.def_230 (and .def_140 .def_144)))
(let ((.def_231 (or .def_104 .def_230)))
(let ((.def_232 (or b.EVENT.1__AT0 .def_231)))
(let ((.def_219 (* b.delta__AT0 .def_72)))
(let ((.def_220 (* (- 1.0) b.speed_y__AT1)))
(let ((.def_223 (+ .def_220 .def_219)))
(let ((.def_224 (+ b.speed_y__AT0 .def_223)))
(let ((.def_225 (= .def_224 0.0 )))
(let ((.def_211 (* (- 1.0) b.y__AT1)))
(let ((.def_78 (* b.delta__AT0 b.speed_y__AT0)))
(let ((.def_214 (+ .def_78 .def_211)))
(let ((.def_71 (* b.delta__AT0 b.delta__AT0)))
(let ((.def_76 (* .def_71 .def_75)))
(let ((.def_215 (+ .def_76 .def_214)))
(let ((.def_216 (+ b.y__AT0 .def_215)))
(let ((.def_217 (= .def_216 0.0 )))
(let ((.def_122 (= b.x__AT0 b.x__AT1)))
(let ((.def_218 (and .def_122 .def_217)))
(let ((.def_226 (and .def_218 .def_225)))
(let ((.def_227 (or .def_104 .def_226)))
(let ((.def_125 (= b.y__AT0 b.y__AT1)))
(let ((.def_206 (and .def_122 .def_125)))
(let ((.def_128 (= b.speed_y__AT0 b.speed_y__AT1)))
(let ((.def_207 (and .def_128 .def_206)))
(let ((.def_203 (= b.delta__AT0 0.0 )))
(let ((.def_204 (and .def_102 .def_203)))
(let ((.def_205 (not .def_204)))
(let ((.def_208 (or .def_205 .def_207)))
(let ((.def_209 (or b.EVENT.1__AT0 .def_208)))
(let ((.def_196 (and .def_128 .def_140)))
(let ((.def_197 (or b.bool_atom__AT0 .def_196)))
(let ((.def_171 (or b.counter.0__AT0 .def_170)))
(let ((.def_169 (or .def_34 b.counter.0__AT1)))
(let ((.def_172 (and .def_169 .def_171)))
(let ((.def_173 (and .def_160 .def_172)))
(let ((.def_174 (or b.counter.1__AT0 .def_173)))
(let ((.def_168 (or .def_32 b.counter.1__AT1)))
(let ((.def_175 (and .def_168 .def_174)))
(let ((.def_187 (and .def_165 .def_175)))
(let ((.def_188 (or b.counter.2__AT0 .def_187)))
(let ((.def_182 (and .def_34 .def_160)))
(let ((.def_183 (or b.counter.1__AT0 .def_182)))
(let ((.def_184 (and .def_168 .def_183)))
(let ((.def_185 (and b.counter.2__AT1 .def_184)))
(let ((.def_186 (or .def_37 .def_185)))
(let ((.def_189 (and .def_186 .def_188)))
(let ((.def_190 (and b.counter.3__AT1 .def_189)))
(let ((.def_191 (or b.counter.3__AT0 .def_190)))
(let ((.def_176 (and b.counter.2__AT1 .def_175)))
(let ((.def_177 (or b.counter.2__AT0 .def_176)))
(let ((.def_163 (or b.counter.1__AT0 b.counter.1__AT1)))
(let ((.def_161 (and b.counter.0__AT1 .def_160)))
(let ((.def_162 (or .def_32 .def_161)))
(let ((.def_164 (and .def_162 .def_163)))
(let ((.def_166 (and .def_164 .def_165)))
(let ((.def_167 (or .def_37 .def_166)))
(let ((.def_178 (and .def_167 .def_177)))
(let ((.def_180 (and .def_178 .def_179)))
(let ((.def_181 (or .def_40 .def_180)))
(let ((.def_192 (and .def_181 .def_191)))
(let ((.def_157 (* b.speed_y__AT0 b.speed_y__AT0)))
(let ((.def_158 (= .def_156 .def_157)))
(let ((.def_154 (+ b.speed_y__AT0 b.speed_y__AT1)))
(let ((.def_155 (= .def_154 0.0 )))
(let ((.def_159 (and .def_155 .def_158)))
(let ((.def_193 (and .def_159 .def_192)))
(let ((.def_153 (not b.bool_atom__AT0)))
(let ((.def_194 (or .def_153 .def_193)))
(let ((.def_87 (<= 0.0 b.speed_y__AT0)))
(let ((.def_150 (not .def_87)))
(let ((.def_58 (* (- 1.0) b.x__AT0)))
(let ((.def_59 (* b.x__AT0 .def_58)))
(let ((.def_149 (= b.y__AT0 .def_59)))
(let ((.def_151 (and .def_149 .def_150)))
(let ((.def_152 (= b.bool_atom__AT0 .def_151)))
(let ((.def_195 (and .def_152 .def_194)))
(let ((.def_198 (and .def_195 .def_197)))
(let ((.def_199 (and .def_122 .def_198)))
(let ((.def_200 (and .def_125 .def_199)))
(let ((.def_201 (or .def_102 .def_200)))
(let ((.def_202 (or b.EVENT.1__AT0 .def_201)))
(let ((.def_210 (and .def_202 .def_209)))
(let ((.def_228 (and .def_210 .def_227)))
(let ((.def_109 (= b.time__AT0 b.time__AT1)))
(let ((.def_123 (and .def_109 .def_122)))
(let ((.def_126 (and .def_123 .def_125)))
(let ((.def_129 (and .def_126 .def_128)))
(let ((.def_141 (and .def_129 .def_140)))
(let ((.def_145 (and .def_141 .def_144)))
(let ((.def_146 (or .def_51 .def_145)))
(let ((.def_112 (* (- 1.0) b.time__AT1)))
(let ((.def_115 (+ b.delta__AT0 .def_112)))
(let ((.def_116 (+ b.time__AT0 .def_115)))
(let ((.def_117 (= .def_116 0.0 )))
(let ((.def_118 (or .def_104 .def_117)))
(let ((.def_119 (or b.EVENT.1__AT0 .def_118)))
(let ((.def_110 (or .def_102 .def_109)))
(let ((.def_111 (or b.EVENT.1__AT0 .def_110)))
(let ((.def_120 (and .def_111 .def_119)))
(let ((.def_147 (and .def_120 .def_146)))
(let ((.def_106 (= .def_104 b.event_is_timed__AT1)))
(let ((.def_103 (= b.event_is_timed__AT0 .def_102)))
(let ((.def_107 (and .def_103 .def_106)))
(let ((.def_148 (and .def_107 .def_147)))
(let ((.def_229 (and .def_148 .def_228)))
(let ((.def_233 (and .def_229 .def_232)))
(let ((.def_237 (and .def_233 .def_236)))
(let ((.def_238 (and .def_51 .def_237)))
(let ((.def_257 (and .def_238 .def_256)))
(let ((.def_264 (and .def_257 .def_263)))
(let ((.def_95 (* b.delta__AT0 .def_94)))
(let ((.def_96 (<= b.speed_y__AT0 .def_95)))
(let ((.def_93 (<= b.speed_y__AT0 0.0 )))
(let ((.def_97 (and .def_93 .def_96)))
(let ((.def_89 (* b.delta__AT0 .def_88)))
(let ((.def_90 (+ b.speed_y__AT0 .def_89)))
(let ((.def_91 (<= 0.0 .def_90)))
(let ((.def_92 (and .def_87 .def_91)))
(let ((.def_98 (or .def_92 .def_97)))
(let ((.def_79 (+ .def_76 .def_78)))
(let ((.def_80 (* (- 1.0) .def_59)))
(let ((.def_83 (+ .def_80 .def_79)))
(let ((.def_84 (+ b.y__AT0 .def_83)))
(let ((.def_85 (<= 0.0 .def_84)))
(let ((.def_60 (<= .def_59 b.y__AT0)))
(let ((.def_86 (and .def_60 .def_85)))
(let ((.def_99 (and .def_86 .def_98)))
(let ((.def_100 (and .def_65 .def_99)))
(let ((.def_66 (and .def_60 .def_65)))
(let ((.def_54 (or .def_51 .def_53)))
(let ((.def_44 (or .def_32 .def_34)))
(let ((.def_48 (or b.counter.3__AT0 .def_44)))
(let ((.def_45 (or b.counter.2__AT0 .def_44)))
(let ((.def_43 (or .def_34 .def_37)))
(let ((.def_46 (and .def_43 .def_45)))
(let ((.def_47 (or .def_40 .def_46)))
(let ((.def_49 (and .def_47 .def_48)))
(let ((.def_55 (and .def_49 .def_54)))
(let ((.def_67 (and .def_55 .def_66)))
(let ((.def_38 (and .def_35 .def_37)))
(let ((.def_41 (and .def_38 .def_40)))
(let ((.def_29 (= b.y__AT0 10.0 )))
(let ((.def_25 (= b.x__AT0 0.0 )))
(let ((.def_21 (= b.time__AT0 0.0 )))
(let ((.def_23 (and .def_21 b.event_is_timed__AT0)))
(let ((.def_26 (and .def_23 .def_25)))
(let ((.def_30 (and .def_26 .def_29)))
(let ((.def_42 (and .def_30 .def_41)))
(let ((.def_68 (and .def_42 .def_67)))
(let ((.def_10 (and .def_6 .def_9)))
(let ((.def_16 (or .def_10 b.counter.3__AT3)))
(let ((.def_11 (or b.counter.2__AT3 .def_10)))
(let ((.def_7 (or .def_4 .def_6)))
(let ((.def_12 (and .def_7 .def_11)))
(let ((.def_15 (or .def_12 .def_14)))
(let ((.def_17 (and .def_15 .def_16)))
(let ((.def_18 (not .def_17)))
(let ((.def_69 (and .def_18 .def_68)))
(let ((.def_101 (and .def_69 .def_100)))
(let ((.def_265 (and .def_101 .def_264)))
(let ((.def_290 (and .def_265 .def_289)))
(let ((.def_454 (and .def_290 .def_453)))
(let ((.def_479 (and .def_454 .def_478)))
(let ((.def_635 (and .def_479 .def_634)))
(let ((.def_660 (and .def_635 .def_659)))
.def_660)))))))))))))))))))))))))))))))))))))))))))))))))))))))))))))))))))))))))))))))))))))))))))))))))))))))))))))))))))))))))))))))))))))))))))))))))))))))))))))))))))))))))))))))))))))))))))))))))))))))))))))))))))))))))))))))))))))))))))))))))))))))))))))))))))))))))))))))))))))))))))))))))))))))))))))))))))))))))))))))))))))))))))))))))))))))))))))))))))))))))))))))))))))))))))))))))))))))))))))))))))))))))))))))))))))))))))))))))))))))))))))))))))))))))))))))))))))))))))))))))))))))))))))))))))))))))))))))))))))))))))))))))))))))))))))))))))))))))))))))))))))))))))
(check-sat)
(exit)
